\ENCODING=ISO-8859-1
\Problem name: IloCplex

Minimize
 obj1: y(1,2,1) + y(1,2,2) + 2 y(1,3,1) + 2 y(1,3,2) + 2 y(1,4,1) + 2 y(1,4,2)
       + 3 y(1,5,1) + 3 y(1,5,2) + 5 y(1,6,1) + 5 y(1,6,2) + 5 y(1,7,1)
       + 5 y(1,7,2) + 5 y(1,8,1) + 5 y(1,8,2) + 5 y(1,9,1) + 5 y(1,9,2)
       + 6 y(1,10,1) + 6 y(1,10,2) + 2 y(1,12,1) + 2 y(1,12,2) + 3 y(1,14,1)
       + 3 y(1,14,2) + y(2,3,1) + y(2,3,2) + 2 y(2,4,1) + 2 y(2,4,2)
       + 3 y(2,5,1) + 3 y(2,5,2) + 5 y(2,6,1) + 5 y(2,6,2) + 5 y(2,7,1)
       + 5 y(2,7,2) + 5 y(2,8,1) + 5 y(2,8,2) + 5 y(2,9,1) + 5 y(2,9,2)
       + 6 y(2,10,1) + 6 y(2,10,2) + 2 y(2,12,1) + 2 y(2,12,2) + 3 y(2,14,1)
       + 3 y(2,14,2) + y(3,4,1) + y(3,4,2) + 2 y(3,5,1) + 2 y(3,5,2)
       + 5 y(3,6,1) + 5 y(3,6,2) + 5 y(3,7,1) + 5 y(3,7,2) + 5 y(3,8,1)
       + 5 y(3,8,2) + 5 y(3,9,1) + 5 y(3,9,2) + 6 y(3,10,1) + 6 y(3,10,2)
       + 2 y(3,12,1) + 2 y(3,12,2) + 3 y(3,14,1) + 3 y(3,14,2) + y(4,5,1)
       + y(4,5,2) + 5 y(4,6,1) + 5 y(4,6,2) + 5 y(4,7,1) + 5 y(4,7,2)
       + 5 y(4,8,1) + 5 y(4,8,2) + 5 y(4,9,1) + 5 y(4,9,2) + 6 y(4,10,1)
       + 6 y(4,10,2) + 2 y(4,12,1) + 2 y(4,12,2) + 3 y(4,14,1) + 3 y(4,14,2)
       + 6 y(5,6,1) + 6 y(5,6,2) + 6 y(5,7,1) + 6 y(5,7,2) + 6 y(5,8,1)
       + 6 y(5,8,2) + 6 y(5,9,1) + 6 y(5,9,2) + 7 y(5,10,1) + 7 y(5,10,2)
       + 3 y(5,12,1) + 3 y(5,12,2) + 4 y(5,14,1) + 4 y(5,14,2) + y(6,7,1)
       + y(6,7,2) + 2 y(6,8,1) + 2 y(6,8,2) + 2 y(6,9,1) + 2 y(6,9,2)
       + 3 y(6,10,1) + 3 y(6,10,2) + 3 y(6,12,1) + 3 y(6,12,2) + 2 y(6,14,1)
       + 2 y(6,14,2) + y(7,8,1) + y(7,8,2) + 2 y(7,9,1) + 2 y(7,9,2)
       + 3 y(7,10,1) + 3 y(7,10,2) + 3 y(7,12,1) + 3 y(7,12,2) + 2 y(7,14,1)
       + 2 y(7,14,2) + y(8,9,1) + y(8,9,2) + 2 y(8,10,1) + 2 y(8,10,2)
       + 3 y(8,12,1) + 3 y(8,12,2) + 2 y(8,14,1) + 2 y(8,14,2) + y(9,10,1)
       + y(9,10,2) + 3 y(9,12,1) + 3 y(9,12,2) + 2 y(9,14,1) + 2 y(9,14,2)
       + 4 y(10,12,1) + 4 y(10,12,2) + 3 y(10,14,1) + 3 y(10,14,2)
       + 3 y(11,13,1) + 3 y(11,13,2) + y(12,14,1) + y(12,14,2)
Subject To
 c1:   x(1,1,1) + x(1,1,2) + x(1,2,1) <= 1
 c2:   x(2,1,1) + x(2,1,3) + x(2,2,1) <= 1
 c3:   x(3,1,2) + x(3,1,3) <= 1
 c4:   x(4,1,3) + x(4,1,4) + x(4,2,4) <= 1
 c5:   x(5,1,2) + x(5,1,4) + x(5,2,4) <= 1
 c6:   x(6,1,1) + x(6,1,2) + x(6,2,1) <= 1
 c7:   x(7,1,1) + x(7,1,3) + x(7,2,1) <= 1
 c8:   x(8,1,2) + x(8,1,3) <= 1
 c9:   x(9,1,3) + x(9,1,4) + x(9,2,4) <= 1
 c10:  x(10,1,2) + x(10,1,4) + x(10,2,4) <= 1
 c11:  x(11,1,1) + x(11,1,2) + x(11,1,3) + x(11,1,4) + x(11,2,1) + x(11,2,4)
       <= 1
 c12:  x(12,1,2) + x(12,1,4) + x(12,2,4) <= 1
 c13:  x(13,1,1) + x(13,1,2) + x(13,1,3) + x(13,1,4) + x(13,2,1) + x(13,2,4)
       <= 1
 c14:  x(14,1,2) + x(14,1,4) + x(14,2,4) <= 1
 c15:  x(1,1,1) + x(2,1,1) + x(6,1,1) + x(7,1,1) + x(11,1,1) + x(13,1,1) >= 2
 c16:  x(1,1,2) + x(3,1,2) + x(5,1,2) + x(6,1,2) + x(8,1,2) + x(10,1,2)
       + x(11,1,2) + x(12,1,2) + x(13,1,2) + x(14,1,2) >= 1
 c17:  x(2,1,3) + x(3,1,3) + x(4,1,3) + x(7,1,3) + x(8,1,3) + x(9,1,3)
       + x(11,1,3) + x(13,1,3) >= 1
 c18:  x(4,1,4) + x(5,1,4) + x(9,1,4) + x(10,1,4) + x(11,1,4) + x(12,1,4)
       + x(13,1,4) + x(14,1,4) >= 1
 c19:  x(1,2,1) + x(2,2,1) + x(6,2,1) + x(7,2,1) + x(11,2,1) + x(13,2,1) >= 1
 c20:  x(4,2,4) + x(5,2,4) + x(9,2,4) + x(10,2,4) + x(11,2,4) + x(12,2,4)
       + x(13,2,4) + x(14,2,4) >= 2
 c21:  y(1,11,1) + y(1,11,2)  = 0
 c22:  y(1,13,1) + y(1,13,2)  = 0
 c23:  y(2,11,1) + y(2,11,2)  = 0
 c24:  y(2,13,1) + y(2,13,2)  = 0
 c25:  y(3,11,1) + y(3,11,2)  = 0
 c26:  y(3,13,1) + y(3,13,2)  = 0
 c27:  y(4,11,1) + y(4,11,2)  = 0
 c28:  y(4,13,1) + y(4,13,2)  = 0
 c29:  y(5,11,1) + y(5,11,2)  = 0
 c30:  y(5,13,1) + y(5,13,2)  = 0
 c31:  y(6,11,1) + y(6,11,2)  = 0
 c32:  y(6,13,1) + y(6,13,2)  = 0
 c33:  y(7,11,1) + y(7,11,2)  = 0
 c34:  y(7,13,1) + y(7,13,2)  = 0
 c35:  y(8,11,1) + y(8,11,2)  = 0
 c36:  y(8,13,1) + y(8,13,2)  = 0
 c37:  y(9,11,1) + y(9,11,2)  = 0
 c38:  y(9,13,1) + y(9,13,2)  = 0
 c39:  y(10,11,1) + y(10,11,2)  = 0
 c40:  y(10,13,1) + y(10,13,2)  = 0
 c41:  y(11,12,1) + y(11,12,2)  = 0
 c42:  y(11,14,1) + y(11,14,2)  = 0
 c43:  y(12,13,1) + y(12,13,2)  = 0
 c44:  y(13,14,1) + y(13,14,2)  = 0
 c45:  x(1,1,1) + x(1,1,2) + x(2,1,1) + x(2,1,3) - y(1,2,1) <= 1
 c46:  x(1,2,1) + x(2,2,1) - y(1,2,2) <= 1
 c47:  x(1,1,1) + x(1,1,2) + x(3,1,2) + x(3,1,3) - y(1,3,1) <= 1
 c48:  x(1,2,1) - y(1,3,2) <= 1
 c49:  x(1,1,1) + x(1,1,2) + x(4,1,3) + x(4,1,4) - y(1,4,1) <= 1
 c50:  x(1,2,1) + x(4,2,4) - y(1,4,2) <= 1
 c51:  x(1,1,1) + x(1,1,2) + x(5,1,2) + x(5,1,4) - y(1,5,1) <= 1
 c52:  x(1,2,1) + x(5,2,4) - y(1,5,2) <= 1
 c53:  x(1,1,1) + x(1,1,2) + x(6,1,1) + x(6,1,2) - y(1,6,1) <= 1
 c54:  x(1,2,1) + x(6,2,1) - y(1,6,2) <= 1
 c55:  x(1,1,1) + x(1,1,2) + x(7,1,1) + x(7,1,3) - y(1,7,1) <= 1
 c56:  x(1,2,1) + x(7,2,1) - y(1,7,2) <= 1
 c57:  x(1,1,1) + x(1,1,2) + x(8,1,2) + x(8,1,3) - y(1,8,1) <= 1
 c58:  x(1,2,1) - y(1,8,2) <= 1
 c59:  x(1,1,1) + x(1,1,2) + x(9,1,3) + x(9,1,4) - y(1,9,1) <= 1
 c60:  x(1,2,1) + x(9,2,4) - y(1,9,2) <= 1
 c61:  x(1,1,1) + x(1,1,2) + x(10,1,2) + x(10,1,4) - y(1,10,1) <= 1
 c62:  x(1,2,1) + x(10,2,4) - y(1,10,2) <= 1
 c63:  x(1,1,1) + x(1,1,2) + x(11,1,1) + x(11,1,2) + x(11,1,3) + x(11,1,4)
       - y(1,11,1) <= 1
 c64:  x(1,2,1) + x(11,2,1) + x(11,2,4) - y(1,11,2) <= 1
 c65:  x(1,1,1) + x(1,1,2) + x(12,1,2) + x(12,1,4) - y(1,12,1) <= 1
 c66:  x(1,2,1) + x(12,2,4) - y(1,12,2) <= 1
 c67:  x(1,1,1) + x(1,1,2) + x(13,1,1) + x(13,1,2) + x(13,1,3) + x(13,1,4)
       - y(1,13,1) <= 1
 c68:  x(1,2,1) + x(13,2,1) + x(13,2,4) - y(1,13,2) <= 1
 c69:  x(1,1,1) + x(1,1,2) + x(14,1,2) + x(14,1,4) - y(1,14,1) <= 1
 c70:  x(1,2,1) + x(14,2,4) - y(1,14,2) <= 1
 c71:  x(2,1,1) + x(2,1,3) + x(3,1,2) + x(3,1,3) - y(2,3,1) <= 1
 c72:  x(2,2,1) - y(2,3,2) <= 1
 c73:  x(2,1,1) + x(2,1,3) + x(4,1,3) + x(4,1,4) - y(2,4,1) <= 1
 c74:  x(2,2,1) + x(4,2,4) - y(2,4,2) <= 1
 c75:  x(2,1,1) + x(2,1,3) + x(5,1,2) + x(5,1,4) - y(2,5,1) <= 1
 c76:  x(2,2,1) + x(5,2,4) - y(2,5,2) <= 1
 c77:  x(2,1,1) + x(2,1,3) + x(6,1,1) + x(6,1,2) - y(2,6,1) <= 1
 c78:  x(2,2,1) + x(6,2,1) - y(2,6,2) <= 1
 c79:  x(2,1,1) + x(2,1,3) + x(7,1,1) + x(7,1,3) - y(2,7,1) <= 1
 c80:  x(2,2,1) + x(7,2,1) - y(2,7,2) <= 1
 c81:  x(2,1,1) + x(2,1,3) + x(8,1,2) + x(8,1,3) - y(2,8,1) <= 1
 c82:  x(2,2,1) - y(2,8,2) <= 1
 c83:  x(2,1,1) + x(2,1,3) + x(9,1,3) + x(9,1,4) - y(2,9,1) <= 1
 c84:  x(2,2,1) + x(9,2,4) - y(2,9,2) <= 1
 c85:  x(2,1,1) + x(2,1,3) + x(10,1,2) + x(10,1,4) - y(2,10,1) <= 1
 c86:  x(2,2,1) + x(10,2,4) - y(2,10,2) <= 1
 c87:  x(2,1,1) + x(2,1,3) + x(11,1,1) + x(11,1,2) + x(11,1,3) + x(11,1,4)
       - y(2,11,1) <= 1
 c88:  x(2,2,1) + x(11,2,1) + x(11,2,4) - y(2,11,2) <= 1
 c89:  x(2,1,1) + x(2,1,3) + x(12,1,2) + x(12,1,4) - y(2,12,1) <= 1
 c90:  x(2,2,1) + x(12,2,4) - y(2,12,2) <= 1
 c91:  x(2,1,1) + x(2,1,3) + x(13,1,1) + x(13,1,2) + x(13,1,3) + x(13,1,4)
       - y(2,13,1) <= 1
 c92:  x(2,2,1) + x(13,2,1) + x(13,2,4) - y(2,13,2) <= 1
 c93:  x(2,1,1) + x(2,1,3) + x(14,1,2) + x(14,1,4) - y(2,14,1) <= 1
 c94:  x(2,2,1) + x(14,2,4) - y(2,14,2) <= 1
 c95:  x(3,1,2) + x(3,1,3) + x(4,1,3) + x(4,1,4) - y(3,4,1) <= 1
 c96:  x(4,2,4) - y(3,4,2) <= 1
 c97:  x(3,1,2) + x(3,1,3) + x(5,1,2) + x(5,1,4) - y(3,5,1) <= 1
 c98:  x(5,2,4) - y(3,5,2) <= 1
 c99:  x(3,1,2) + x(3,1,3) + x(6,1,1) + x(6,1,2) - y(3,6,1) <= 1
 c100: x(6,2,1) - y(3,6,2) <= 1
 c101: x(3,1,2) + x(3,1,3) + x(7,1,1) + x(7,1,3) - y(3,7,1) <= 1
 c102: x(7,2,1) - y(3,7,2) <= 1
 c103: x(3,1,2) + x(3,1,3) + x(8,1,2) + x(8,1,3) - y(3,8,1) <= 1
 c104: - y(3,8,2) <= 1
 c105: x(3,1,2) + x(3,1,3) + x(9,1,3) + x(9,1,4) - y(3,9,1) <= 1
 c106: x(9,2,4) - y(3,9,2) <= 1
 c107: x(3,1,2) + x(3,1,3) + x(10,1,2) + x(10,1,4) - y(3,10,1) <= 1
 c108: x(10,2,4) - y(3,10,2) <= 1
 c109: x(3,1,2) + x(3,1,3) + x(11,1,1) + x(11,1,2) + x(11,1,3) + x(11,1,4)
       - y(3,11,1) <= 1
 c110: x(11,2,1) + x(11,2,4) - y(3,11,2) <= 1
 c111: x(3,1,2) + x(3,1,3) + x(12,1,2) + x(12,1,4) - y(3,12,1) <= 1
 c112: x(12,2,4) - y(3,12,2) <= 1
 c113: x(3,1,2) + x(3,1,3) + x(13,1,1) + x(13,1,2) + x(13,1,3) + x(13,1,4)
       - y(3,13,1) <= 1
 c114: x(13,2,1) + x(13,2,4) - y(3,13,2) <= 1
 c115: x(3,1,2) + x(3,1,3) + x(14,1,2) + x(14,1,4) - y(3,14,1) <= 1
 c116: x(14,2,4) - y(3,14,2) <= 1
 c117: x(4,1,3) + x(4,1,4) + x(5,1,2) + x(5,1,4) - y(4,5,1) <= 1
 c118: x(4,2,4) + x(5,2,4) - y(4,5,2) <= 1
 c119: x(4,1,3) + x(4,1,4) + x(6,1,1) + x(6,1,2) - y(4,6,1) <= 1
 c120: x(4,2,4) + x(6,2,1) - y(4,6,2) <= 1
 c121: x(4,1,3) + x(4,1,4) + x(7,1,1) + x(7,1,3) - y(4,7,1) <= 1
 c122: x(4,2,4) + x(7,2,1) - y(4,7,2) <= 1
 c123: x(4,1,3) + x(4,1,4) + x(8,1,2) + x(8,1,3) - y(4,8,1) <= 1
 c124: x(4,2,4) - y(4,8,2) <= 1
 c125: x(4,1,3) + x(4,1,4) + x(9,1,3) + x(9,1,4) - y(4,9,1) <= 1
 c126: x(4,2,4) + x(9,2,4) - y(4,9,2) <= 1
 c127: x(4,1,3) + x(4,1,4) + x(10,1,2) + x(10,1,4) - y(4,10,1) <= 1
 c128: x(4,2,4) + x(10,2,4) - y(4,10,2) <= 1
 c129: x(4,1,3) + x(4,1,4) + x(11,1,1) + x(11,1,2) + x(11,1,3) + x(11,1,4)
       - y(4,11,1) <= 1
 c130: x(4,2,4) + x(11,2,1) + x(11,2,4) - y(4,11,2) <= 1
 c131: x(4,1,3) + x(4,1,4) + x(12,1,2) + x(12,1,4) - y(4,12,1) <= 1
 c132: x(4,2,4) + x(12,2,4) - y(4,12,2) <= 1
 c133: x(4,1,3) + x(4,1,4) + x(13,1,1) + x(13,1,2) + x(13,1,3) + x(13,1,4)
       - y(4,13,1) <= 1
 c134: x(4,2,4) + x(13,2,1) + x(13,2,4) - y(4,13,2) <= 1
 c135: x(4,1,3) + x(4,1,4) + x(14,1,2) + x(14,1,4) - y(4,14,1) <= 1
 c136: x(4,2,4) + x(14,2,4) - y(4,14,2) <= 1
 c137: x(5,1,2) + x(5,1,4) + x(6,1,1) + x(6,1,2) - y(5,6,1) <= 1
 c138: x(5,2,4) + x(6,2,1) - y(5,6,2) <= 1
 c139: x(5,1,2) + x(5,1,4) + x(7,1,1) + x(7,1,3) - y(5,7,1) <= 1
 c140: x(5,2,4) + x(7,2,1) - y(5,7,2) <= 1
 c141: x(5,1,2) + x(5,1,4) + x(8,1,2) + x(8,1,3) - y(5,8,1) <= 1
 c142: x(5,2,4) - y(5,8,2) <= 1
 c143: x(5,1,2) + x(5,1,4) + x(9,1,3) + x(9,1,4) - y(5,9,1) <= 1
 c144: x(5,2,4) + x(9,2,4) - y(5,9,2) <= 1
 c145: x(5,1,2) + x(5,1,4) + x(10,1,2) + x(10,1,4) - y(5,10,1) <= 1
 c146: x(5,2,4) + x(10,2,4) - y(5,10,2) <= 1
 c147: x(5,1,2) + x(5,1,4) + x(11,1,1) + x(11,1,2) + x(11,1,3) + x(11,1,4)
       - y(5,11,1) <= 1
 c148: x(5,2,4) + x(11,2,1) + x(11,2,4) - y(5,11,2) <= 1
 c149: x(5,1,2) + x(5,1,4) + x(12,1,2) + x(12,1,4) - y(5,12,1) <= 1
 c150: x(5,2,4) + x(12,2,4) - y(5,12,2) <= 1
 c151: x(5,1,2) + x(5,1,4) + x(13,1,1) + x(13,1,2) + x(13,1,3) + x(13,1,4)
       - y(5,13,1) <= 1
 c152: x(5,2,4) + x(13,2,1) + x(13,2,4) - y(5,13,2) <= 1
 c153: x(5,1,2) + x(5,1,4) + x(14,1,2) + x(14,1,4) - y(5,14,1) <= 1
 c154: x(5,2,4) + x(14,2,4) - y(5,14,2) <= 1
 c155: x(6,1,1) + x(6,1,2) + x(7,1,1) + x(7,1,3) - y(6,7,1) <= 1
 c156: x(6,2,1) + x(7,2,1) - y(6,7,2) <= 1
 c157: x(6,1,1) + x(6,1,2) + x(8,1,2) + x(8,1,3) - y(6,8,1) <= 1
 c158: x(6,2,1) - y(6,8,2) <= 1
 c159: x(6,1,1) + x(6,1,2) + x(9,1,3) + x(9,1,4) - y(6,9,1) <= 1
 c160: x(6,2,1) + x(9,2,4) - y(6,9,2) <= 1
 c161: x(6,1,1) + x(6,1,2) + x(10,1,2) + x(10,1,4) - y(6,10,1) <= 1
 c162: x(6,2,1) + x(10,2,4) - y(6,10,2) <= 1
 c163: x(6,1,1) + x(6,1,2) + x(11,1,1) + x(11,1,2) + x(11,1,3) + x(11,1,4)
       - y(6,11,1) <= 1
 c164: x(6,2,1) + x(11,2,1) + x(11,2,4) - y(6,11,2) <= 1
 c165: x(6,1,1) + x(6,1,2) + x(12,1,2) + x(12,1,4) - y(6,12,1) <= 1
 c166: x(6,2,1) + x(12,2,4) - y(6,12,2) <= 1
 c167: x(6,1,1) + x(6,1,2) + x(13,1,1) + x(13,1,2) + x(13,1,3) + x(13,1,4)
       - y(6,13,1) <= 1
 c168: x(6,2,1) + x(13,2,1) + x(13,2,4) - y(6,13,2) <= 1
 c169: x(6,1,1) + x(6,1,2) + x(14,1,2) + x(14,1,4) - y(6,14,1) <= 1
 c170: x(6,2,1) + x(14,2,4) - y(6,14,2) <= 1
 c171: x(7,1,1) + x(7,1,3) + x(8,1,2) + x(8,1,3) - y(7,8,1) <= 1
 c172: x(7,2,1) - y(7,8,2) <= 1
 c173: x(7,1,1) + x(7,1,3) + x(9,1,3) + x(9,1,4) - y(7,9,1) <= 1
 c174: x(7,2,1) + x(9,2,4) - y(7,9,2) <= 1
 c175: x(7,1,1) + x(7,1,3) + x(10,1,2) + x(10,1,4) - y(7,10,1) <= 1
 c176: x(7,2,1) + x(10,2,4) - y(7,10,2) <= 1
 c177: x(7,1,1) + x(7,1,3) + x(11,1,1) + x(11,1,2) + x(11,1,3) + x(11,1,4)
       - y(7,11,1) <= 1
 c178: x(7,2,1) + x(11,2,1) + x(11,2,4) - y(7,11,2) <= 1
 c179: x(7,1,1) + x(7,1,3) + x(12,1,2) + x(12,1,4) - y(7,12,1) <= 1
 c180: x(7,2,1) + x(12,2,4) - y(7,12,2) <= 1
 c181: x(7,1,1) + x(7,1,3) + x(13,1,1) + x(13,1,2) + x(13,1,3) + x(13,1,4)
       - y(7,13,1) <= 1
 c182: x(7,2,1) + x(13,2,1) + x(13,2,4) - y(7,13,2) <= 1
 c183: x(7,1,1) + x(7,1,3) + x(14,1,2) + x(14,1,4) - y(7,14,1) <= 1
 c184: x(7,2,1) + x(14,2,4) - y(7,14,2) <= 1
 c185: x(8,1,2) + x(8,1,3) + x(9,1,3) + x(9,1,4) - y(8,9,1) <= 1
 c186: x(9,2,4) - y(8,9,2) <= 1
 c187: x(8,1,2) + x(8,1,3) + x(10,1,2) + x(10,1,4) - y(8,10,1) <= 1
 c188: x(10,2,4) - y(8,10,2) <= 1
 c189: x(8,1,2) + x(8,1,3) + x(11,1,1) + x(11,1,2) + x(11,1,3) + x(11,1,4)
       - y(8,11,1) <= 1
 c190: x(11,2,1) + x(11,2,4) - y(8,11,2) <= 1
 c191: x(8,1,2) + x(8,1,3) + x(12,1,2) + x(12,1,4) - y(8,12,1) <= 1
 c192: x(12,2,4) - y(8,12,2) <= 1
 c193: x(8,1,2) + x(8,1,3) + x(13,1,1) + x(13,1,2) + x(13,1,3) + x(13,1,4)
       - y(8,13,1) <= 1
 c194: x(13,2,1) + x(13,2,4) - y(8,13,2) <= 1
 c195: x(8,1,2) + x(8,1,3) + x(14,1,2) + x(14,1,4) - y(8,14,1) <= 1
 c196: x(14,2,4) - y(8,14,2) <= 1
 c197: x(9,1,3) + x(9,1,4) + x(10,1,2) + x(10,1,4) - y(9,10,1) <= 1
 c198: x(9,2,4) + x(10,2,4) - y(9,10,2) <= 1
 c199: x(9,1,3) + x(9,1,4) + x(11,1,1) + x(11,1,2) + x(11,1,3) + x(11,1,4)
       - y(9,11,1) <= 1
 c200: x(9,2,4) + x(11,2,1) + x(11,2,4) - y(9,11,2) <= 1
 c201: x(9,1,3) + x(9,1,4) + x(12,1,2) + x(12,1,4) - y(9,12,1) <= 1
 c202: x(9,2,4) + x(12,2,4) - y(9,12,2) <= 1
 c203: x(9,1,3) + x(9,1,4) + x(13,1,1) + x(13,1,2) + x(13,1,3) + x(13,1,4)
       - y(9,13,1) <= 1
 c204: x(9,2,4) + x(13,2,1) + x(13,2,4) - y(9,13,2) <= 1
 c205: x(9,1,3) + x(9,1,4) + x(14,1,2) + x(14,1,4) - y(9,14,1) <= 1
 c206: x(9,2,4) + x(14,2,4) - y(9,14,2) <= 1
 c207: x(10,1,2) + x(10,1,4) + x(11,1,1) + x(11,1,2) + x(11,1,3) + x(11,1,4)
       - y(10,11,1) <= 1
 c208: x(10,2,4) + x(11,2,1) + x(11,2,4) - y(10,11,2) <= 1
 c209: x(10,1,2) + x(10,1,4) + x(12,1,2) + x(12,1,4) - y(10,12,1) <= 1
 c210: x(10,2,4) + x(12,2,4) - y(10,12,2) <= 1
 c211: x(10,1,2) + x(10,1,4) + x(13,1,1) + x(13,1,2) + x(13,1,3) + x(13,1,4)
       - y(10,13,1) <= 1
 c212: x(10,2,4) + x(13,2,1) + x(13,2,4) - y(10,13,2) <= 1
 c213: x(10,1,2) + x(10,1,4) + x(14,1,2) + x(14,1,4) - y(10,14,1) <= 1
 c214: x(10,2,4) + x(14,2,4) - y(10,14,2) <= 1
 c215: x(11,1,1) + x(11,1,2) + x(11,1,3) + x(11,1,4) + x(12,1,2) + x(12,1,4)
       - y(11,12,1) <= 1
 c216: x(11,2,1) + x(11,2,4) + x(12,2,4) - y(11,12,2) <= 1
 c217: x(11,1,1) + x(11,1,2) + x(11,1,3) + x(11,1,4) + x(13,1,1) + x(13,1,2)
       + x(13,1,3) + x(13,1,4) - y(11,13,1) <= 1
 c218: x(11,2,1) + x(11,2,4) + x(13,2,1) + x(13,2,4) - y(11,13,2) <= 1
 c219: x(11,1,1) + x(11,1,2) + x(11,1,3) + x(11,1,4) + x(14,1,2) + x(14,1,4)
       - y(11,14,1) <= 1
 c220: x(11,2,1) + x(11,2,4) + x(14,2,4) - y(11,14,2) <= 1
 c221: x(12,1,2) + x(12,1,4) + x(13,1,1) + x(13,1,2) + x(13,1,3) + x(13,1,4)
       - y(12,13,1) <= 1
 c222: x(12,2,4) + x(13,2,1) + x(13,2,4) - y(12,13,2) <= 1
 c223: x(12,1,2) + x(12,1,4) + x(14,1,2) + x(14,1,4) - y(12,14,1) <= 1
 c224: x(12,2,4) + x(14,2,4) - y(12,14,2) <= 1
 c225: x(13,1,1) + x(13,1,2) + x(13,1,3) + x(13,1,4) + x(14,1,2) + x(14,1,4)
       - y(13,14,1) <= 1
 c226: x(13,2,1) + x(13,2,4) + x(14,2,4) - y(13,14,2) <= 1
 c227: - 4 x(1,1,1) - 4 x(1,1,2) + y(1,2,1) + y(1,3,1) + y(1,5,1) + y(1,6,1)
       + y(1,7,1) + y(1,8,1) + y(1,10,1) + y(1,12,1) + y(1,14,1)  = 0
 c228: - 4 x(2,1,1) - 4 x(2,1,3) + y(2,3,1) + y(2,4,1) + y(2,6,1) + y(2,7,1)
       + y(2,8,1) + y(2,9,1)  = 0
 c229: - 4 x(3,1,2) - 4 x(3,1,3) + y(3,4,1) + y(3,5,1) + y(3,6,1) + y(3,7,1)
       + y(3,8,1) + y(3,9,1) + y(3,10,1) + y(3,12,1) + y(3,14,1)  = 0
 c230: - 4 x(4,1,3) - 4 x(4,1,4) + y(4,5,1) + y(4,7,1) + y(4,8,1) + y(4,9,1)
       + y(4,10,1) + y(4,12,1) + y(4,14,1)  = 0
 c231: - 4 x(5,1,2) - 4 x(5,1,4) + y(5,6,1) + y(5,8,1) + y(5,9,1) + y(5,10,1)
       + y(5,12,1) + y(5,14,1)  = 0
 c232: - 4 x(6,1,1) - 4 x(6,1,2) + y(6,7,1) + y(6,8,1) + y(6,10,1) + y(6,12,1)
       + y(6,14,1)  = 0
 c233: - 4 x(7,1,1) - 4 x(7,1,3) + y(7,8,1) + y(7,9,1)  = 0
 c234: - 4 x(8,1,2) - 4 x(8,1,3) + y(8,9,1) + y(8,10,1) + y(8,12,1) + y(8,14,1)
        = 0
 c235: - 4 x(9,1,3) - 4 x(9,1,4) + y(9,10,1) + y(9,12,1) + y(9,14,1)  = 0
 c236: - 4 x(10,1,2) - 4 x(10,1,4) + y(10,12,1) + y(10,14,1)  = 0
 c237: - 4 x(11,1,1) - 4 x(11,1,2) - 4 x(11,1,3) - 4 x(11,1,4) + y(11,13,1)
        = 0
 c238: - 4 x(12,1,2) - 4 x(12,1,4) + y(12,14,1)  = 0
Bounds
 0 <= x(1,1,1) <= 1
 0 <= x(1,1,2) <= 1
 0 <= x(2,1,1) <= 1
 0 <= x(2,1,3) <= 1
 0 <= x(3,1,2) <= 1
 0 <= x(3,1,3) <= 1
 0 <= x(4,1,3) <= 1
 0 <= x(4,1,4) <= 1
 0 <= x(5,1,2) <= 1
 0 <= x(5,1,4) <= 1
 0 <= x(6,1,1) <= 1
 0 <= x(6,1,2) <= 1
 0 <= x(7,1,1) <= 1
 0 <= x(7,1,3) <= 1
 0 <= x(8,1,2) <= 1
 0 <= x(8,1,3) <= 1
 0 <= x(9,1,3) <= 1
 0 <= x(9,1,4) <= 1
 0 <= x(10,1,2) <= 1
 0 <= x(10,1,4) <= 1
 0 <= x(11,1,1) <= 1
 0 <= x(11,1,2) <= 1
 0 <= x(11,1,3) <= 1
 0 <= x(11,1,4) <= 1
 0 <= x(12,1,2) <= 1
 0 <= x(12,1,4) <= 1
 0 <= x(13,1,1) <= 1
 0 <= x(13,1,2) <= 1
 0 <= x(13,1,3) <= 1
 0 <= x(13,1,4) <= 1
 0 <= x(14,1,2) <= 1
 0 <= x(14,1,4) <= 1
 0 <= x(1,2,1) <= 1
 0 <= x(2,2,1) <= 1
 0 <= x(4,2,4) <= 1
 0 <= x(5,2,4) <= 1
 0 <= x(6,2,1) <= 1
 0 <= x(7,2,1) <= 1
 0 <= x(9,2,4) <= 1
 0 <= x(10,2,4) <= 1
 0 <= x(11,2,1) <= 1
 0 <= x(11,2,4) <= 1
 0 <= x(12,2,4) <= 1
 0 <= x(13,2,1) <= 1
 0 <= x(13,2,4) <= 1
 0 <= x(14,2,4) <= 1
 0 <= y(1,2,1) <= 1
 0 <= y(1,2,2) <= 1
 0 <= y(1,3,1) <= 1
 0 <= y(1,3,2) <= 1
 0 <= y(1,4,1) <= 1
 0 <= y(1,4,2) <= 1
 0 <= y(1,5,1) <= 1
 0 <= y(1,5,2) <= 1
 0 <= y(1,6,1) <= 1
 0 <= y(1,6,2) <= 1
 0 <= y(1,7,1) <= 1
 0 <= y(1,7,2) <= 1
 0 <= y(1,8,1) <= 1
 0 <= y(1,8,2) <= 1
 0 <= y(1,9,1) <= 1
 0 <= y(1,9,2) <= 1
 0 <= y(1,10,1) <= 1
 0 <= y(1,10,2) <= 1
 0 <= y(1,11,1) <= 1
 0 <= y(1,11,2) <= 1
 0 <= y(1,12,1) <= 1
 0 <= y(1,12,2) <= 1
 0 <= y(1,13,1) <= 1
 0 <= y(1,13,2) <= 1
 0 <= y(1,14,1) <= 1
 0 <= y(1,14,2) <= 1
 0 <= y(2,3,1) <= 1
 0 <= y(2,3,2) <= 1
 0 <= y(2,4,1) <= 1
 0 <= y(2,4,2) <= 1
 0 <= y(2,5,1) <= 1
 0 <= y(2,5,2) <= 1
 0 <= y(2,6,1) <= 1
 0 <= y(2,6,2) <= 1
 0 <= y(2,7,1) <= 1
 0 <= y(2,7,2) <= 1
 0 <= y(2,8,1) <= 1
 0 <= y(2,8,2) <= 1
 0 <= y(2,9,1) <= 1
 0 <= y(2,9,2) <= 1
 0 <= y(2,10,1) <= 1
 0 <= y(2,10,2) <= 1
 0 <= y(2,11,1) <= 1
 0 <= y(2,11,2) <= 1
 0 <= y(2,12,1) <= 1
 0 <= y(2,12,2) <= 1
 0 <= y(2,13,1) <= 1
 0 <= y(2,13,2) <= 1
 0 <= y(2,14,1) <= 1
 0 <= y(2,14,2) <= 1
 0 <= y(3,4,1) <= 1
 0 <= y(3,4,2) <= 1
 0 <= y(3,5,1) <= 1
 0 <= y(3,5,2) <= 1
 0 <= y(3,6,1) <= 1
 0 <= y(3,6,2) <= 1
 0 <= y(3,7,1) <= 1
 0 <= y(3,7,2) <= 1
 0 <= y(3,8,1) <= 1
 0 <= y(3,8,2) <= 1
 0 <= y(3,9,1) <= 1
 0 <= y(3,9,2) <= 1
 0 <= y(3,10,1) <= 1
 0 <= y(3,10,2) <= 1
 0 <= y(3,11,1) <= 1
 0 <= y(3,11,2) <= 1
 0 <= y(3,12,1) <= 1
 0 <= y(3,12,2) <= 1
 0 <= y(3,13,1) <= 1
 0 <= y(3,13,2) <= 1
 0 <= y(3,14,1) <= 1
 0 <= y(3,14,2) <= 1
 0 <= y(4,5,1) <= 1
 0 <= y(4,5,2) <= 1
 0 <= y(4,6,1) <= 1
 0 <= y(4,6,2) <= 1
 0 <= y(4,7,1) <= 1
 0 <= y(4,7,2) <= 1
 0 <= y(4,8,1) <= 1
 0 <= y(4,8,2) <= 1
 0 <= y(4,9,1) <= 1
 0 <= y(4,9,2) <= 1
 0 <= y(4,10,1) <= 1
 0 <= y(4,10,2) <= 1
 0 <= y(4,11,1) <= 1
 0 <= y(4,11,2) <= 1
 0 <= y(4,12,1) <= 1
 0 <= y(4,12,2) <= 1
 0 <= y(4,13,1) <= 1
 0 <= y(4,13,2) <= 1
 0 <= y(4,14,1) <= 1
 0 <= y(4,14,2) <= 1
 0 <= y(5,6,1) <= 1
 0 <= y(5,6,2) <= 1
 0 <= y(5,7,1) <= 1
 0 <= y(5,7,2) <= 1
 0 <= y(5,8,1) <= 1
 0 <= y(5,8,2) <= 1
 0 <= y(5,9,1) <= 1
 0 <= y(5,9,2) <= 1
 0 <= y(5,10,1) <= 1
 0 <= y(5,10,2) <= 1
 0 <= y(5,11,1) <= 1
 0 <= y(5,11,2) <= 1
 0 <= y(5,12,1) <= 1
 0 <= y(5,12,2) <= 1
 0 <= y(5,13,1) <= 1
 0 <= y(5,13,2) <= 1
 0 <= y(5,14,1) <= 1
 0 <= y(5,14,2) <= 1
 0 <= y(6,7,1) <= 1
 0 <= y(6,7,2) <= 1
 0 <= y(6,8,1) <= 1
 0 <= y(6,8,2) <= 1
 0 <= y(6,9,1) <= 1
 0 <= y(6,9,2) <= 1
 0 <= y(6,10,1) <= 1
 0 <= y(6,10,2) <= 1
 0 <= y(6,11,1) <= 1
 0 <= y(6,11,2) <= 1
 0 <= y(6,12,1) <= 1
 0 <= y(6,12,2) <= 1
 0 <= y(6,13,1) <= 1
 0 <= y(6,13,2) <= 1
 0 <= y(6,14,1) <= 1
 0 <= y(6,14,2) <= 1
 0 <= y(7,8,1) <= 1
 0 <= y(7,8,2) <= 1
 0 <= y(7,9,1) <= 1
 0 <= y(7,9,2) <= 1
 0 <= y(7,10,1) <= 1
 0 <= y(7,10,2) <= 1
 0 <= y(7,11,1) <= 1
 0 <= y(7,11,2) <= 1
 0 <= y(7,12,1) <= 1
 0 <= y(7,12,2) <= 1
 0 <= y(7,13,1) <= 1
 0 <= y(7,13,2) <= 1
 0 <= y(7,14,1) <= 1
 0 <= y(7,14,2) <= 1
 0 <= y(8,9,1) <= 1
 0 <= y(8,9,2) <= 1
 0 <= y(8,10,1) <= 1
 0 <= y(8,10,2) <= 1
 0 <= y(8,11,1) <= 1
 0 <= y(8,11,2) <= 1
 0 <= y(8,12,1) <= 1
 0 <= y(8,12,2) <= 1
 0 <= y(8,13,1) <= 1
 0 <= y(8,13,2) <= 1
 0 <= y(8,14,1) <= 1
 0 <= y(8,14,2) <= 1
 0 <= y(9,10,1) <= 1
 0 <= y(9,10,2) <= 1
 0 <= y(9,11,1) <= 1
 0 <= y(9,11,2) <= 1
 0 <= y(9,12,1) <= 1
 0 <= y(9,12,2) <= 1
 0 <= y(9,13,1) <= 1
 0 <= y(9,13,2) <= 1
 0 <= y(9,14,1) <= 1
 0 <= y(9,14,2) <= 1
 0 <= y(10,11,1) <= 1
 0 <= y(10,11,2) <= 1
 0 <= y(10,12,1) <= 1
 0 <= y(10,12,2) <= 1
 0 <= y(10,13,1) <= 1
 0 <= y(10,13,2) <= 1
 0 <= y(10,14,1) <= 1
 0 <= y(10,14,2) <= 1
 0 <= y(11,12,1) <= 1
 0 <= y(11,12,2) <= 1
 0 <= y(11,13,1) <= 1
 0 <= y(11,13,2) <= 1
 0 <= y(11,14,1) <= 1
 0 <= y(11,14,2) <= 1
 0 <= y(12,13,1) <= 1
 0 <= y(12,13,2) <= 1
 0 <= y(12,14,1) <= 1
 0 <= y(12,14,2) <= 1
 0 <= y(13,14,1) <= 1
 0 <= y(13,14,2) <= 1
Binaries
 x(1,1,1)  x(1,1,2)  x(2,1,1)  x(2,1,3)  x(3,1,2)  x(3,1,3)  x(4,1,3) 
 x(4,1,4)  x(5,1,2)  x(5,1,4)  x(6,1,1)  x(6,1,2)  x(7,1,1)  x(7,1,3) 
 x(8,1,2)  x(8,1,3)  x(9,1,3)  x(9,1,4)  x(10,1,2)  x(10,1,4)  x(11,1,1) 
 x(11,1,2)  x(11,1,3)  x(11,1,4)  x(12,1,2)  x(12,1,4)  x(13,1,1)  x(13,1,2) 
 x(13,1,3)  x(13,1,4)  x(14,1,2)  x(14,1,4)  x(1,2,1)  x(2,2,1)  x(4,2,4) 
 x(5,2,4)  x(6,2,1)  x(7,2,1)  x(9,2,4)  x(10,2,4)  x(11,2,1)  x(11,2,4) 
 x(12,2,4)  x(13,2,1)  x(13,2,4)  x(14,2,4)  y(1,2,1)  y(1,2,2)  y(1,3,1) 
 y(1,3,2)  y(1,4,1)  y(1,4,2)  y(1,5,1)  y(1,5,2)  y(1,6,1)  y(1,6,2) 
 y(1,7,1)  y(1,7,2)  y(1,8,1)  y(1,8,2)  y(1,9,1)  y(1,9,2)  y(1,10,1) 
 y(1,10,2)  y(1,11,1)  y(1,11,2)  y(1,12,1)  y(1,12,2)  y(1,13,1)  y(1,13,2) 
 y(1,14,1)  y(1,14,2)  y(2,3,1)  y(2,3,2)  y(2,4,1)  y(2,4,2)  y(2,5,1) 
 y(2,5,2)  y(2,6,1)  y(2,6,2)  y(2,7,1)  y(2,7,2)  y(2,8,1)  y(2,8,2) 
 y(2,9,1)  y(2,9,2)  y(2,10,1)  y(2,10,2)  y(2,11,1)  y(2,11,2)  y(2,12,1) 
 y(2,12,2)  y(2,13,1)  y(2,13,2)  y(2,14,1)  y(2,14,2)  y(3,4,1)  y(3,4,2) 
 y(3,5,1)  y(3,5,2)  y(3,6,1)  y(3,6,2)  y(3,7,1)  y(3,7,2)  y(3,8,1) 
 y(3,8,2)  y(3,9,1)  y(3,9,2)  y(3,10,1)  y(3,10,2)  y(3,11,1)  y(3,11,2) 
 y(3,12,1)  y(3,12,2)  y(3,13,1)  y(3,13,2)  y(3,14,1)  y(3,14,2)  y(4,5,1) 
 y(4,5,2)  y(4,6,1)  y(4,6,2)  y(4,7,1)  y(4,7,2)  y(4,8,1)  y(4,8,2) 
 y(4,9,1)  y(4,9,2)  y(4,10,1)  y(4,10,2)  y(4,11,1)  y(4,11,2)  y(4,12,1) 
 y(4,12,2)  y(4,13,1)  y(4,13,2)  y(4,14,1)  y(4,14,2)  y(5,6,1)  y(5,6,2) 
 y(5,7,1)  y(5,7,2)  y(5,8,1)  y(5,8,2)  y(5,9,1)  y(5,9,2)  y(5,10,1) 
 y(5,10,2)  y(5,11,1)  y(5,11,2)  y(5,12,1)  y(5,12,2)  y(5,13,1)  y(5,13,2) 
 y(5,14,1)  y(5,14,2)  y(6,7,1)  y(6,7,2)  y(6,8,1)  y(6,8,2)  y(6,9,1) 
 y(6,9,2)  y(6,10,1)  y(6,10,2)  y(6,11,1)  y(6,11,2)  y(6,12,1)  y(6,12,2) 
 y(6,13,1)  y(6,13,2)  y(6,14,1)  y(6,14,2)  y(7,8,1)  y(7,8,2)  y(7,9,1) 
 y(7,9,2)  y(7,10,1)  y(7,10,2)  y(7,11,1)  y(7,11,2)  y(7,12,1)  y(7,12,2) 
 y(7,13,1)  y(7,13,2)  y(7,14,1)  y(7,14,2)  y(8,9,1)  y(8,9,2)  y(8,10,1) 
 y(8,10,2)  y(8,11,1)  y(8,11,2)  y(8,12,1)  y(8,12,2)  y(8,13,1)  y(8,13,2) 
 y(8,14,1)  y(8,14,2)  y(9,10,1)  y(9,10,2)  y(9,11,1)  y(9,11,2)  y(9,12,1) 
 y(9,12,2)  y(9,13,1)  y(9,13,2)  y(9,14,1)  y(9,14,2)  y(10,11,1)  y(10,11,2) 
 y(10,12,1)  y(10,12,2)  y(10,13,1)  y(10,13,2)  y(10,14,1)  y(10,14,2) 
 y(11,12,1)  y(11,12,2)  y(11,13,1)  y(11,13,2)  y(11,14,1)  y(11,14,2) 
 y(12,13,1)  y(12,13,2)  y(12,14,1)  y(12,14,2)  y(13,14,1)  y(13,14,2) 
End
